s td 313 4 614
b 1 20
b 2 226 270
b 3 78 324
b 4 286 324 325
b 5 89 325 326
b 6 169 326 327
b 7 76 316
b 8 114 182
b 9 77 327 328
b 10 148 328 329
b 11 196 329 330
b 12 293 330 331
b 13 51 331 332
b 14 285 332 333
b 15 213 333 334
b 16 219 334 335
b 17 73 335 336
b 18 67 336 337
b 19 194 337 338
b 20 1 338 339
b 21 188 339 340
b 22 267 340 341
b 23 205 341 342
b 24 28 342 343
b 25 302 343 344
b 26 107 344 345
b 27 201 345 346
b 28 71 346 347
b 29 245 347 348
b 30 168 348 349
b 31 199 349 350
b 32 8 350 351
b 33 97 351 352
b 34 6 352 353
b 35 120 353 354
b 36 237 354 355
b 37 48 355 356
b 38 183 356 357
b 39 288 357 358
b 40 34 358 359
b 41 29 359 360
b 42 282 360 361
b 43 5 361 362
b 44 129 362 363
b 45 26 363 364
b 46 274 364 365
b 47 91 365 366
b 48 185 366 367
b 49 289 367 368
b 50 156 368 369
b 51 279 369 370
b 52 121 370 371
b 53 297 371 372
b 54 225 372 373
b 55 147 373 374
b 56 18 374 375
b 57 141 375 376
b 58 234 376 377
b 59 162 377 378
b 60 212 378 379
b 61 131 379 380
b 62 70 380 381
b 63 125 381 382
b 64 238 382 383
b 65 102 383 384
b 66 122 384 385
b 67 95 385 386
b 68 44 386 387
b 69 151 387 388
b 70 186 388 389
b 71 301 389 390
b 72 38 390 391
b 73 54 391 392
b 74 19 392 393
b 75 208 393 394
b 76 146 394 395
b 77 4 395 396
b 78 241 396 397
b 79 256 397 398
b 80 191 398 399
b 81 150 399 400
b 82 155 400 401
b 83 13 401 402
b 84 178 402 403
b 85 232 403 404
b 86 103 404 405
b 87 299 405 406
b 88 128 406 407
b 89 111 407 408
b 90 137 408 409
b 91 82 409 410
b 92 60 410 411
b 93 224 411 412
b 94 223 412 413
b 95 90 413 414
b 96 72 414 415
b 97 133 415 416
b 98 140 416 417
b 99 58 417 418
b 100 113 418 419
b 101 231 419 420
b 102 222 420 421
b 103 210 421 422
b 104 132 422 423
b 105 187 423 424
b 106 154 424 425
b 107 66 425 426
b 108 166 426 427
b 109 249 427 428
b 110 181 428 429
b 111 173 429 430
b 112 236 430 431
b 113 45 431 432
b 114 2 432 433
b 115 138 433 434
b 116 296 434 435
b 117 242 435 436
b 118 294 436 437
b 119 273 437 438
b 120 100 438 439
b 121 268 439 440
b 122 304 440 441
b 123 50 441 442
b 124 192 442 443
b 125 7 443 444
b 126 235 444 445
b 127 263 445 446
b 128 175 446 447
b 129 171 447 448
b 130 23 448 449
b 131 110 449 450
b 132 246 450 451
b 133 161 451 452
b 134 39 452 453
b 135 252 453 454
b 136 275 454 455
b 137 46 455 456
b 138 69 456 457
b 139 264 457 458
b 140 33 458 459
b 141 65 459 460
b 142 215 460 461
b 143 135 461 462
b 144 152 462 463
b 145 9 463 464
b 146 123 464 465
b 147 92 465 466
b 148 250 466 467
b 149 126 467 468
b 150 35 468 469
b 151 240 469 470
b 152 42 470 471
b 153 203 471 472
b 154 117 472 473
b 155 127 473 474
b 156 86 474 475
b 157 130 475 476
b 158 233 476 477
b 159 52 477 478
b 160 106 478 479
b 161 53 479 480
b 162 16 480 481
b 163 164 481 482
b 164 230 482 483
b 165 276 483 484
b 166 269 484 485
b 167 134 485 486
b 168 142 486 487
b 169 217 487 488
b 170 197 488 489
b 171 307 489 490
b 172 136 490 491
b 173 278 491 492
b 174 56 492 493
b 175 40 493 494
b 176 295 494 495
b 177 177 495 496
b 178 10 496 497
b 179 257 497 498
b 180 11 498 499
b 181 198 499 500
b 182 209 500 501
b 183 108 501 502
b 184 261 502 503
b 185 64 503 504
b 186 189 504 505
b 187 94 505 506
b 188 74 506 507
b 189 281 507 508
b 190 182 508 509
b 191 207 509 510
b 192 57 510 511
b 193 80 511 512
b 194 206 512 513
b 195 287 513 514
b 196 163 514 515
b 197 55 515 516
b 198 85 516 517
b 199 109 517 518
b 200 149 518 519
b 201 220 519 520
b 202 49 520 521
b 203 105 521 522
b 204 258 522 523
b 205 202 523 524
b 206 259 524 525
b 207 254 525 526
b 208 59 526 527
b 209 25 527 528
b 210 24 528 529
b 211 243 529 530
b 212 144 530 531
b 213 88 531 532
b 214 260 532 533
b 215 145 533 534
b 216 32 534 535
b 217 41 308
b 218 112 586 587
b 219 284 585 586
b 220 298 584 585
b 221 61 583 584
b 222 167 582 583
b 223 228 581 582
b 224 271 580 581
b 225 195 579 580
b 226 251 578 579
b 227 15 577 578
b 228 179 576 577
b 229 153 575 576
b 230 174 574 575
b 231 14 573 574
b 232 37 572 573
b 233 22 571 572
b 234 47 570 571
b 235 204 569 570
b 236 255 568 569
b 237 160 567 568
b 238 190 566 567
b 239 118 565 566
b 240 31 564 565
b 241 180 563 564
b 242 165 562 563
b 243 211 561 562
b 244 36 560 561
b 245 104 559 560
b 246 239 558 559
b 247 193 557 558
b 248 98 556 557
b 249 143 555 556
b 250 75 554 555
b 251 158 553 554
b 252 62 552 553
b 253 93 551 552
b 254 300 550 551
b 255 3 549 550
b 256 306 548 549
b 257 21 547 548
b 258 216 546 547
b 259 305 545 546
b 260 253 544 545
b 261 176 543 544
b 262 277 542 543
b 263 283 541 542
b 264 221 540 541
b 265 248 539 540
b 266 272 538 539
b 267 266 537 538
b 268 81 536 537
b 269 116 535 536
b 270 184 587 588
b 271 229 588 589
b 272 247 589 590
b 273 280 590 591
b 274 83 591 592
b 275 291 592 593
b 276 172 593 594
b 277 63 594 595
b 278 290 595 596
b 279 96 596 597
b 280 119 597 598
b 281 124 598 599
b 282 115 599 600
b 283 12 600 601
b 284 200 601 602
b 285 292 602 603
b 286 157 603 604
b 287 262 604 605
b 288 218 605 606
b 289 68 606 607
b 290 84 607 608
b 291 214 608 609
b 292 43 609 610
b 293 159 610 611
b 294 99 611 612
b 295 30 612 613
b 296 79 613 614
b 297 227 244 614
b 298 303 308 309
b 299 303 316 317
b 300 303 309 317
b 301 87 309 310 317
b 302 87 310 317 318
b 303 17 310 311 318
b 304 17 311 318 319
b 305 170 311 319 320
b 306 170 311 312 320
b 307 265 312 313 320
b 308 265 313 320 321
b 309 139 313 314 321
b 310 139 314 321 322
b 311 27 314 315 322
b 312 27 315 322 323
b 313 101 116 315 323
312 313
269 313
268 269
216 269
215 216
214 215
213 214
212 213
211 212
210 211
209 210
208 209
207 208
206 207
205 206
204 205
203 204
202 203
201 202
200 201
199 200
198 199
197 198
196 197
195 196
194 195
193 194
192 193
191 192
190 191
189 190
8 190
188 189
187 188
186 187
185 186
184 185
183 184
182 183
181 182
180 181
179 180
178 179
177 178
176 177
175 176
174 175
173 174
172 173
171 172
170 171
169 170
168 169
167 168
166 167
165 166
164 165
163 164
162 163
161 162
160 161
159 160
158 159
157 158
156 157
155 156
154 155
153 154
152 153
151 152
150 151
149 150
148 149
147 148
146 147
145 146
144 145
143 144
142 143
141 142
140 141
139 140
138 139
137 138
136 137
135 136
134 135
133 134
132 133
131 132
130 131
129 130
128 129
127 128
126 127
125 126
124 125
123 124
122 123
121 122
120 121
119 120
118 119
117 118
116 117
115 116
114 115
113 114
112 113
111 112
110 111
109 110
108 109
107 108
106 107
105 106
104 105
103 104
102 103
101 102
100 101
99 100
98 99
97 98
96 97
95 96
94 95
93 94
92 93
91 92
90 91
89 90
88 89
87 88
86 87
85 86
84 85
83 84
82 83
81 82
80 81
79 80
78 79
77 78
76 77
75 76
74 75
73 74
72 73
71 72
70 71
2 71
69 70
68 69
67 68
66 67
65 66
64 65
63 64
62 63
61 62
60 61
59 60
58 59
57 58
56 57
55 56
54 55
53 54
52 53
51 52
50 51
49 50
48 49
47 48
46 47
45 46
44 45
43 44
42 43
41 42
40 41
39 40
38 39
37 38
36 37
35 36
34 35
33 34
32 33
31 32
30 31
29 30
28 29
27 28
26 27
25 26
24 25
23 24
22 23
21 22
20 21
19 20
18 19
17 18
16 17
15 16
14 15
13 14
12 13
11 12
10 11
9 10
6 9
5 6
4 5
3 4
267 268
266 267
265 266
264 265
263 264
262 263
261 262
260 261
259 260
258 259
257 258
256 257
255 256
1 256
254 255
253 254
252 253
251 252
250 251
249 250
248 249
247 248
246 247
245 246
244 245
243 244
242 243
241 242
240 241
239 240
238 239
237 238
236 237
235 236
234 235
233 234
232 233
231 232
230 231
229 230
228 229
227 228
226 227
225 226
224 225
223 224
222 223
221 222
220 221
219 220
218 219
270 218
271 270
272 271
273 272
274 273
275 274
276 275
277 276
278 277
279 278
280 279
281 280
282 281
283 282
284 283
285 284
286 285
287 286
288 287
289 288
290 289
291 290
292 291
293 292
294 293
295 294
296 295
297 296
311 312
310 311
309 310
308 309
307 308
306 307
305 306
304 305
303 304
302 303
301 302
300 301
298 300
299 300
7 299
217 298
